000101011000010001000010000100101000100101010101000010111000110100110011110000011010101101001000001100100010001101001001101010011101000101000000110110100111010100011100001111010111011101110001010001111100010110001011000100010101000001000000100101101001110110001011101000010101010101000001101010010111001001000101000010111000010101001101000011111100110111101011100110100001000011001110111110000010000100101010111111101111001001001101110100011001100010101110101101010011010001010101000011000101010101001111100001101101010101001100000101100100110101100100011111111001010000101101010010000100111000111110011110011101110101000110101010001000101000101010110110000110100010101101010100011101101000100000111000111100000110000111100000010011100010010010111010010100100111111010